(set-logic QF_NRA)
(set-info :source |Benchmarks generated from hycomp (https://es-static.fbk.eu/tools/hycomp/). BMC instances of non-linear hybrid automata taken from: Alessandro Cimatti, Sergio Mover, Stefano Tonetta, A quantifier-free SMT encoding of non-linear hybrid automata, FMCAD 2012 and Alessandro Cimatti, Sergio Mover, Stefano Tonetta, Quantier-free encoding of invariants for Hybrid Systems, Formal Methods in System Design. This instance solves a BMC problem of depth 1 and uses the quantifier free encoding with equivalences encoding. Contacts: Sergio Mover (mover@fbk.eu), Stefano Tonetta (tonettas@fbk.eu), Alessandro Cimatti (cimatti@fbk.eu).|)
(set-info :smt-lib-version 2.0)
(set-info :category "industrial")
(set-info :status unsat)
;; MathSAT API call trace
;; generated on Mon Mar 19 10:45:45 2012
(declare-fun b.delta__AT0 () Real)
(declare-fun b.EVENT.0__AT0 () Bool)
(declare-fun b.y__AT1 () Real)
(declare-fun b.counter.0__AT1 () Bool)
(declare-fun b.counter.1__AT1 () Bool)
(declare-fun b.counter.2__AT1 () Bool)
(declare-fun speed_loss__AT0 () Real)
(declare-fun b.counter.3__AT1 () Bool)
(declare-fun b.EVENT.0__AT1 () Bool)
(declare-fun b.EVENT.1__AT1 () Bool)
(declare-fun b.counter.3__AT0 () Bool)
(declare-fun b.x__AT0 () Real)
(declare-fun b.speed_y__AT0 () Real)
(declare-fun b.speed_x__AT0 () Real)
(declare-fun b.x__AT1 () Real)
(declare-fun b.EVENT.1__AT0 () Bool)
(declare-fun b.event_is_timed__AT1 () Bool)
(declare-fun b.time__AT0 () Real)
(declare-fun b.speed_x__AT1 () Real)
(declare-fun b.speed_y__AT1 () Real)
(declare-fun b.y__AT0 () Real)
(declare-fun b.counter.0__AT0 () Bool)
(declare-fun b.counter.1__AT0 () Bool)
(declare-fun g__AT0 () Real)
(declare-fun b.event_is_timed__AT0 () Bool)
(declare-fun b.counter.2__AT0 () Bool)
(declare-fun b.time__AT1 () Real)
(declare-fun b.delta__AT1 () Real)
(assert (let ((.def_72 (* (- 1.0) g__AT0)))
(let ((.def_73 (* (/ 1 2) .def_72)))
(let ((.def_81 (* 2.0 .def_73)))
(let ((.def_261 (* .def_81 b.delta__AT1)))
(let ((.def_262 (+ b.speed_y__AT1 .def_261)))
(let ((.def_266 (<= .def_262 0.0 )))
(let ((.def_265 (<= b.speed_y__AT1 0.0 )))
(let ((.def_267 (and .def_265 .def_266)))
(let ((.def_263 (<= 0.0 .def_262)))
(let ((.def_260 (<= 0.0 b.speed_y__AT1)))
(let ((.def_264 (and .def_260 .def_263)))
(let ((.def_268 (or .def_264 .def_267)))
(let ((.def_255 (* b.speed_y__AT1 b.delta__AT1)))
(let ((.def_253 (* b.delta__AT1 b.delta__AT1)))
(let ((.def_254 (* .def_73 .def_253)))
(let ((.def_256 (+ .def_254 .def_255)))
(let ((.def_257 (+ b.y__AT1 .def_256)))
(let ((.def_258 (<= 0.0 .def_257)))
(let ((.def_243 (<= 0.0 b.y__AT1)))
(let ((.def_259 (and .def_243 .def_258)))
(let ((.def_269 (and .def_259 .def_268)))
(let ((.def_53 (<= g__AT0 10.0 )))
(let ((.def_52 (<= 8.0 g__AT0)))
(let ((.def_54 (and .def_52 .def_53)))
(let ((.def_270 (and .def_54 .def_269)))
(let ((.def_61 (<= speed_loss__AT0 (/ 1 2))))
(let ((.def_58 (<= (/ 1 10) speed_loss__AT0)))
(let ((.def_62 (and .def_58 .def_61)))
(let ((.def_271 (and .def_62 .def_270)))
(let ((.def_28 (not b.counter.0__AT0)))
(let ((.def_247 (or b.counter.1__AT0 .def_28)))
(let ((.def_31 (not b.counter.2__AT0)))
(let ((.def_248 (or .def_31 .def_247)))
(let ((.def_249 (or b.counter.3__AT0 .def_248)))
(let ((.def_63 (and .def_54 .def_62)))
(let ((.def_244 (and .def_63 .def_243)))
(let ((.def_240 (not b.EVENT.0__AT1)))
(let ((.def_238 (not b.EVENT.1__AT1)))
(let ((.def_241 (or .def_238 .def_240)))
(let ((.def_135 (not b.counter.1__AT1)))
(let ((.def_4 (not b.counter.0__AT1)))
(let ((.def_231 (or .def_4 .def_135)))
(let ((.def_235 (or b.counter.3__AT1 .def_231)))
(let ((.def_232 (or b.counter.2__AT1 .def_231)))
(let ((.def_8 (not b.counter.2__AT1)))
(let ((.def_230 (or .def_4 .def_8)))
(let ((.def_233 (and .def_230 .def_232)))
(let ((.def_152 (not b.counter.3__AT1)))
(let ((.def_234 (or .def_152 .def_233)))
(let ((.def_236 (and .def_234 .def_235)))
(let ((.def_242 (and .def_236 .def_241)))
(let ((.def_245 (and .def_242 .def_244)))
(let ((.def_225 (<= 0.0 b.delta__AT0)))
(let ((.def_47 (not b.EVENT.0__AT0)))
(let ((.def_45 (not b.EVENT.1__AT0)))
(let ((.def_123 (and .def_45 .def_47)))
(let ((.def_124 (not .def_123)))
(let ((.def_226 (or .def_124 .def_225)))
(let ((.def_227 (or b.EVENT.1__AT0 .def_226)))
(let ((.def_174 (= b.counter.0__AT1 b.counter.0__AT0)))
(let ((.def_172 (= b.counter.1__AT1 b.counter.1__AT0)))
(let ((.def_170 (= b.counter.2__AT1 b.counter.2__AT0)))
(let ((.def_169 (= b.counter.3__AT1 b.counter.3__AT0)))
(let ((.def_171 (and .def_169 .def_170)))
(let ((.def_173 (and .def_171 .def_172)))
(let ((.def_175 (and .def_173 .def_174)))
(let ((.def_222 (or .def_124 .def_175)))
(let ((.def_223 (or b.EVENT.1__AT0 .def_222)))
(let ((.def_182 (= b.x__AT1 b.x__AT0)))
(let ((.def_179 (= b.y__AT0 b.y__AT1)))
(let ((.def_216 (and .def_179 .def_182)))
(let ((.def_105 (= b.speed_x__AT0 b.speed_x__AT1)))
(let ((.def_217 (and .def_105 .def_216)))
(let ((.def_168 (= b.speed_y__AT0 b.speed_y__AT1)))
(let ((.def_218 (and .def_168 .def_217)))
(let ((.def_213 (= b.delta__AT0 0.0 )))
(let ((.def_214 (and .def_123 .def_213)))
(let ((.def_215 (not .def_214)))
(let ((.def_219 (or .def_215 .def_218)))
(let ((.def_220 (or b.EVENT.1__AT0 .def_219)))
(let ((.def_193 (= b.time__AT0 b.time__AT1)))
(let ((.def_205 (and .def_182 .def_193)))
(let ((.def_206 (and .def_179 .def_205)))
(let ((.def_207 (and .def_105 .def_206)))
(let ((.def_208 (and .def_168 .def_207)))
(let ((.def_209 (and .def_175 .def_208)))
(let ((.def_210 (or .def_45 .def_209)))
(let ((.def_196 (* (- 1.0) b.time__AT1)))
(let ((.def_199 (+ b.delta__AT0 .def_196)))
(let ((.def_200 (+ b.time__AT0 .def_199)))
(let ((.def_201 (= .def_200 0.0 )))
(let ((.def_202 (or .def_124 .def_201)))
(let ((.def_203 (or b.EVENT.1__AT0 .def_202)))
(let ((.def_194 (or .def_123 .def_193)))
(let ((.def_195 (or b.EVENT.1__AT0 .def_194)))
(let ((.def_204 (and .def_195 .def_203)))
(let ((.def_211 (and .def_204 .def_210)))
(let ((.def_189 (= .def_124 b.event_is_timed__AT1)))
(let ((.def_187 (= b.event_is_timed__AT0 .def_123)))
(let ((.def_190 (and .def_187 .def_189)))
(let ((.def_176 (and .def_168 .def_175)))
(let ((.def_80 (<= 0.0 b.speed_y__AT0)))
(let ((.def_127 (not .def_80)))
(let ((.def_126 (= b.y__AT0 0.0 )))
(let ((.def_128 (and .def_126 .def_127)))
(let ((.def_177 (or .def_128 .def_176)))
(let ((.def_144 (or .def_4 b.counter.0__AT0)))
(let ((.def_143 (or b.counter.0__AT1 .def_28)))
(let ((.def_145 (and .def_143 .def_144)))
(let ((.def_146 (and .def_135 .def_145)))
(let ((.def_147 (or b.counter.1__AT0 .def_146)))
(let ((.def_26 (not b.counter.1__AT0)))
(let ((.def_142 (or b.counter.1__AT1 .def_26)))
(let ((.def_148 (and .def_142 .def_147)))
(let ((.def_160 (and .def_8 .def_148)))
(let ((.def_161 (or b.counter.2__AT0 .def_160)))
(let ((.def_155 (and .def_28 .def_135)))
(let ((.def_156 (or b.counter.1__AT0 .def_155)))
(let ((.def_157 (and .def_142 .def_156)))
(let ((.def_158 (and b.counter.2__AT1 .def_157)))
(let ((.def_159 (or .def_31 .def_158)))
(let ((.def_162 (and .def_159 .def_161)))
(let ((.def_163 (and b.counter.3__AT1 .def_162)))
(let ((.def_164 (or b.counter.3__AT0 .def_163)))
(let ((.def_149 (and b.counter.2__AT1 .def_148)))
(let ((.def_150 (or b.counter.2__AT0 .def_149)))
(let ((.def_138 (or b.counter.1__AT1 b.counter.1__AT0)))
(let ((.def_136 (and b.counter.0__AT1 .def_135)))
(let ((.def_137 (or .def_26 .def_136)))
(let ((.def_139 (and .def_137 .def_138)))
(let ((.def_140 (and .def_8 .def_139)))
(let ((.def_141 (or .def_31 .def_140)))
(let ((.def_151 (and .def_141 .def_150)))
(let ((.def_153 (and .def_151 .def_152)))
(let ((.def_34 (not b.counter.3__AT0)))
(let ((.def_154 (or .def_34 .def_153)))
(let ((.def_165 (and .def_154 .def_164)))
(let ((.def_131 (* (- 1.0) speed_loss__AT0)))
(let ((.def_132 (+ 1.0 .def_131)))
(let ((.def_130 (* (- 1.0) b.speed_y__AT0)))
(let ((.def_133 (* .def_130 .def_132)))
(let ((.def_134 (= b.speed_y__AT1 .def_133)))
(let ((.def_166 (and .def_134 .def_165)))
(let ((.def_129 (not .def_128)))
(let ((.def_167 (or .def_129 .def_166)))
(let ((.def_178 (and .def_167 .def_177)))
(let ((.def_180 (and .def_178 .def_179)))
(let ((.def_181 (and .def_105 .def_180)))
(let ((.def_183 (and .def_181 .def_182)))
(let ((.def_184 (or .def_123 .def_183)))
(let ((.def_185 (or b.EVENT.1__AT0 .def_184)))
(let ((.def_115 (* (- 1.0) b.y__AT1)))
(let ((.def_75 (* b.speed_y__AT0 b.delta__AT0)))
(let ((.def_118 (+ .def_75 .def_115)))
(let ((.def_70 (* b.delta__AT0 b.delta__AT0)))
(let ((.def_74 (* .def_70 .def_73)))
(let ((.def_119 (+ .def_74 .def_118)))
(let ((.def_120 (+ b.y__AT0 .def_119)))
(let ((.def_121 (= .def_120 0.0 )))
(let ((.def_109 (* (- 1.0) b.speed_y__AT1)))
(let ((.def_107 (* b.delta__AT0 .def_72)))
(let ((.def_110 (+ .def_107 .def_109)))
(let ((.def_111 (+ b.speed_y__AT0 .def_110)))
(let ((.def_112 (= .def_111 0.0 )))
(let ((.def_97 (* (- 1.0) b.x__AT1)))
(let ((.def_101 (+ .def_97 b.x__AT0)))
(let ((.def_95 (* b.delta__AT0 b.speed_x__AT0)))
(let ((.def_102 (+ .def_95 .def_101)))
(let ((.def_103 (= .def_102 0.0 )))
(let ((.def_106 (and .def_103 .def_105)))
(let ((.def_113 (and .def_106 .def_112)))
(let ((.def_122 (and .def_113 .def_121)))
(let ((.def_125 (or .def_122 .def_124)))
(let ((.def_186 (and .def_125 .def_185)))
(let ((.def_191 (and .def_186 .def_190)))
(let ((.def_212 (and .def_191 .def_211)))
(let ((.def_221 (and .def_212 .def_220)))
(let ((.def_224 (and .def_221 .def_223)))
(let ((.def_228 (and .def_224 .def_227)))
(let ((.def_229 (and .def_45 .def_228)))
(let ((.def_246 (and .def_229 .def_245)))
(let ((.def_250 (and .def_246 .def_249)))
(let ((.def_82 (* b.delta__AT0 .def_81)))
(let ((.def_83 (+ b.speed_y__AT0 .def_82)))
(let ((.def_87 (<= .def_83 0.0 )))
(let ((.def_86 (<= b.speed_y__AT0 0.0 )))
(let ((.def_88 (and .def_86 .def_87)))
(let ((.def_84 (<= 0.0 .def_83)))
(let ((.def_85 (and .def_80 .def_84)))
(let ((.def_89 (or .def_85 .def_88)))
(let ((.def_76 (+ .def_74 .def_75)))
(let ((.def_77 (+ b.y__AT0 .def_76)))
(let ((.def_78 (<= 0.0 .def_77)))
(let ((.def_64 (<= 0.0 b.y__AT0)))
(let ((.def_79 (and .def_64 .def_78)))
(let ((.def_90 (and .def_79 .def_89)))
(let ((.def_91 (and .def_54 .def_90)))
(let ((.def_92 (and .def_62 .def_91)))
(let ((.def_65 (and .def_63 .def_64)))
(let ((.def_48 (or .def_45 .def_47)))
(let ((.def_38 (or .def_26 .def_28)))
(let ((.def_42 (or b.counter.3__AT0 .def_38)))
(let ((.def_39 (or b.counter.2__AT0 .def_38)))
(let ((.def_37 (or .def_28 .def_31)))
(let ((.def_40 (and .def_37 .def_39)))
(let ((.def_41 (or .def_34 .def_40)))
(let ((.def_43 (and .def_41 .def_42)))
(let ((.def_49 (and .def_43 .def_48)))
(let ((.def_66 (and .def_49 .def_65)))
(let ((.def_29 (and .def_26 .def_28)))
(let ((.def_32 (and .def_29 .def_31)))
(let ((.def_35 (and .def_32 .def_34)))
(let ((.def_23 (= b.speed_y__AT0 0.0 )))
(let ((.def_20 (= b.y__AT0 10.0 )))
(let ((.def_15 (= b.time__AT0 0.0 )))
(let ((.def_17 (and .def_15 b.event_is_timed__AT0)))
(let ((.def_21 (and .def_17 .def_20)))
(let ((.def_24 (and .def_21 .def_23)))
(let ((.def_36 (and .def_24 .def_35)))
(let ((.def_67 (and .def_36 .def_66)))
(let ((.def_6 (or .def_4 b.counter.1__AT1)))
(let ((.def_9 (or .def_6 .def_8)))
(let ((.def_11 (or .def_9 b.counter.3__AT1)))
(let ((.def_12 (not .def_11)))
(let ((.def_68 (and .def_12 .def_67)))
(let ((.def_93 (and .def_68 .def_92)))
(let ((.def_251 (and .def_93 .def_250)))
(let ((.def_272 (and .def_251 .def_271)))
.def_272)))))))))))))))))))))))))))))))))))))))))))))))))))))))))))))))))))))))))))))))))))))))))))))))))))))))))))))))))))))))))))))))))))))))))))))))))))))))))))))))))))))))))))))))))))))))))))))))))))))))))))))))))))))))))))))))))))))
(check-sat)
(exit)
